proyfinal/src/viki/013/experimentInOfficeAgust.take6.output/f0a6e89c-a12e-4b9f-9799-28e352e58144.als.dat
{'cnf.clauses': '118081',
 'cnf.totvars': '69608',
 'conflict literals': '4',
 'conflicts': '4',
 'decisions': '1998',
 'memused.mb': '16.79',
 'outcome': 'UNSAT',
 'propagations': '22603',
 'restarts': '1',
 'solver.msecs': 32,
 'task.msecs': 80}
