proyfinal/src/viki/013/experimentInOfficeAgust.take6.output/f0a6e89c-a12e-4b9f-9799-28e352e58144.als.out
Reading from standard input... Use '--help' for help.
============================[ Problem Statistics ]=============================
|                                                                             |
|  Number of variables:         69608                                         |
|  Number of clauses:          118081                                         |
|  Parse time:                   0.02 s                                       |
|                                                                             |
============================[ Search Statistics ]==============================
| Conflicts |          ORIGINAL         |          LEARNT          | Progress |
|           |    Vars  Clauses Literals |    Limit  Clauses Lit/Cl |          |
===============================================================================
===============================================================================
restarts              : 1
conflicts             : 4              (121 /sec)
decisions             : 1998           (0.00 % random) (60683 /sec)
propagations          : 22603          (686500 /sec)
conflict literals     : 4              (0.00 % deleted)
Memory used           : 16.79 MB
CPU time              : 0.032925 s

UNSATISFIABLE
